20J6M/DAT/20J6MULL-17.dat
20 6
11.0472 11.0472
7.5749 7.5749
47.389 47.389
8.3189 8.3189
10.1406 10.1406
30.4335 30.4335
39.2977 39.2977
30.4663 30.4663
13.1709 13.1709
22.7456 22.7456
1.2135 1.2135
3.5336 3.5336
28.1136 28.1136
7.3241 7.3241
33.7504 33.7504
36.9035 36.9035
33.8741 33.8741
14.8556 14.8556
7.8481 7.8481
11.0799 11.0799
66.5135