20J6M/SOL/20J6MULL-17.sol
solution status: optimal solution found
objective value:                              66.5135
x#1#4                                               1 	(obj:0)
x#2#3                                               1 	(obj:0)
x#3#2                                               1 	(obj:0)
x#4#4                                               1 	(obj:0)
x#5#4                                               1 	(obj:0)
x#6#1                               0.338758276241642 	(obj:0)
x#6#3                               0.661241723758358 	(obj:0)
x#7#1                               0.513343020074966 	(obj:0)
x#7#2                               0.486656979925034 	(obj:0)
x#8#5                                               1 	(obj:0)
x#9#4                                0.54826169813756 	(obj:0)
x#9#6                                0.45173830186244 	(obj:0)
x#10#3                                              1 	(obj:0)
x#11#3                                              1 	(obj:0)
x#12#4                                              1 	(obj:0)
x#13#5                                              1 	(obj:0)
x#14#4                                              1 	(obj:0)
x#15#6                                              1 	(obj:0)
x#16#1                             0.0584389014592111 	(obj:0)
x#16#5                              0.214982318750254 	(obj:0)
x#16#6                              0.726578779790534 	(obj:0)
x#17#1                                              1 	(obj:0)
x#18#3                                              1 	(obj:0)
x#19#4                                              1 	(obj:0)
x#20#4                                              1 	(obj:0)
z                                             66.5135 	(obj:1)
